
Gurobi 10.0.1 (linux64) logging started Sun Nov 26 15:46:24 2023

Set parameter LogFile to value "ArtificialInstance/ExperimentV2/S2T3K2/BaDo/gurobi91.txt"
Gurobi Optimizer version 10.0.1 build v10.0.1rc0 (linux64)

CPU model: AMD EPYC 7H12 64-Core Processor, instruction set [SSE2|AVX|AVX2]
Thread count: 128 physical cores, 128 logical processors, using up to 32 threads

Academic license 656792 - for non-commercial use only - registered to b.___@student.vu.nl
Optimize a model with 420 rows, 720 columns and 2240 nonzeros
Model fingerprint: 0x80331ebb
Variable types: 0 continuous, 720 integer (720 binary)
Coefficient statistics:
  Matrix range     [1e+00, 1e+00]
  Objective range  [2e+00, 2e+01]
  Bounds range     [1e+00, 1e+00]
  RHS range        [1e+00, 1e+00]
Found heuristic solution: objective 316.9894271
Presolve time: 0.00s
Presolved: 420 rows, 720 columns, 2240 nonzeros
Variable types: 0 continuous, 720 integer (720 binary)

Root relaxation: objective 2.465881e+01, 317 iterations, 0.00 seconds (0.00 work units)

    Nodes    |    Current Node    |     Objective Bounds      |     Work
 Expl Unexpl |  Obj  Depth IntInf | Incumbent    BestBd   Gap | It/Node Time

     0     0   24.65881    0   50  316.98943   24.65881  92.2%     -    0s
H    0     0                     192.9796790   24.65881  87.2%     -    0s
H    0     0                      72.6292501   24.65881  66.0%     -    0s
H    0     0                      30.6734233   24.65881  19.6%     -    0s
     0     0   28.14316    0   39   30.67342   28.14316  8.25%     -    0s
     0     0   28.14316    0   45   30.67342   28.14316  8.25%     -    0s
H    0     0                      30.3709364   28.14316  7.34%     -    0s
     0     0   30.37094    0   35   30.37094   30.37094  0.00%     -    0s

Cutting planes:
  Gomory: 4
  Zero half: 17

Explored 1 nodes (699 simplex iterations) in 0.12 seconds (0.01 work units)
Thread count was 32 (of 128 available processors)

Solution count 5: 30.3709 30.6734 72.6293 ... 316.989

Optimal solution found (tolerance 1.00e-04)
Best objective 3.037093638854e+01, best bound 3.037093638854e+01, gap 0.0000%
